p cnf 14 64
6 11 -14 0
-4 -6 -7 0
1 8 -11 0
5 11 -12 0
1 -7 -13 0
1 11 -14 0
-4 6 11 0
-6 -12 13 0
5 -6 -14 0
-3 -8 -11 0
-1 8 13 0
3 6 -10 0
-7 -11 12 0
-2 11 12 0
2 9 13 0
7 8 -13 0
5 10 11 0
1 2 9 0
3 8 -14 0
4 -8 11 0
1 7 -10 0
3 12 14 0
2 6 9 0
-1 4 -8 0
4 7 -8 0
6 9 11 0
3 5 10 0
-7 -8 12 0
6 8 -12 0
-5 10 -11 0
-2 -7 -9 0
1 11 12 0
-2 -7 -12 0
1 3 -5 0
1 -8 13 0
7 -10 13 0
-1 -6 12 0
-2 4 7 0
-1 -10 -14 0
-2 5 -6 0
1 -13 -14 0
1 6 -14 0
-8 -10 -11 0
1 2 3 0
2 3 -9 0
-3 4 -12 0
2 -3 6 0
-5 10 14 0
2 5 -6 0
3 9 14 0
6 8 12 0
4 6 -10 0
1 -9 13 0
-8 -10 12 0
-4 8 10 0
-1 2 -4 0
-3 10 -12 0
1 -2 -10 0
-2 3 9 0
3 -10 14 0
-2 -8 12 0
1 -6 11 0
-4 -8 14 0
-4 5 11 0
